c This Formular is generated by mcnf
c
c    horn? no
c    forced? no
c    mixed sat? no
c    clause length = 3
c
p cnf 20  73
 4 -18 19 0a
3 18 -5 0a
-5 -8 -15 0a
-20 7 -16 0a
10 -13 -7 0a
-12 -9 17 0a
17 19 5 0a
-16 9 15 0a
11 -5 -14 0a
18 -10 13 0a
-3 11 12 0a
-6 -17 -8 0a
-18 14 1 0a
-19 -15 10 0a
12 18 -19 0a
-8 4 7 0a
-8 -9 4 0a
7 17 -15 0a
12 -7 -14 0a
-10 -11 8 0a
2 -15 -11 0a
9 6 1 0a
-11 20 -17 0a
9 -15 13 0a
12 -7 -17 0a
-18 -2 20 0a
20 12 4 0a
19 11 14 0a
-16 18 -4 0a
-1 -17 -19 0a
-13 15 10 0a
-12 -14 -13 0a
12 -14 -7 0a
-7 16 10 0a
6 10 7 0a
20 14 -16 0a
-19 17 11 0a
-7 1 -20 0a
-5 12 15 0a
-4 -9 -13 0a
12 -11 -7 0a
-5 19 -8 0a
1 16 17 0a
20 -14 -15 0a
13 -4 10 0a
14 7 10 0a
-5 9 20 0a
10 1 -19 0a
-16 -15 -1 0a
16 3 -11 0a
-15 -10 4 0a
4 -15 -3 0a
-10 -16 11 0a
-8 12 -5 0a
14 -6 12 0a
1 6 11 0a
-13 -5 -1 0a
-7 -2 12 0a
1 -20 19 0a
-2 -13 -8 0a
15 18 4 0a
-11 14 9 0a
-6 -15 -2 0a
5 -12 -15 0a
-6 17 5 0a
-13 5 -19 0a
20 -1 14 0a
9 -17 15 0a
-5 19 -18 0a
-12 8 -10 0a
-18 14 -4 0a
15 -9 13 0a
9 -5 -1 0a
%
0

